<instance format="XCSP3" type="CSP">
  <variables>
    <var id="x0"> 4 6 13 </var>
    <var id="x1"> 2 11 14 </var>
    <var id="x2"> 4 13 14 17 </var>
    <var id="x3"> 2 4 6 11 13 14 </var>
    <var id="x4"> 6 14 17 </var>
    <var id="x5"> 6 13 14 </var>
    <var id="x6"> 2 11 13 17 </var>
    <var id="x7"> 3 11 12 14 </var>
    <var id="x8"> 3 4 12 14 </var>
    <var id="x9"> 3 11 12 </var>
    <var id="x10"> 4 6 11 12 14 </var>
    <var id="x11"> 0 6 7 14 </var>
    <var id="x12"> 3 6 14 </var>
    <var id="x13"> 0 4 7 14 </var>
    <var id="x14"> 4 6 14 </var>
    <var id="x15"> 6 11 16 </var>
    <var id="x16"> 1 3 5 11 </var>
    <var id="x17"> 0 3 5 11 </var>
    <var id="x18"> 1 4 5 </var>
    <var id="x19"> 0 1 5 6 </var>
    <var id="x20"> 0 1 3 16 </var>
    <var id="x21"> 4 6 </var>
    <var id="x22"> 0 1 3 11 </var>
    <var id="x23"> 0 4 13 15 16 </var>
    <var id="x24"> 4 13..15 </var>
    <var id="x25"> 0 14 </var>
    <var id="x26"> 1 4 </var>
    <var id="x27"> 0 16 </var>
    <var id="x28"> 0 1 14 15 </var>
    <var id="x29"> 0 1 13 </var>
    <var id="x30"> 2 6 12 14..16 </var>
    <var id="x31"> 4 6 15 16 </var>
    <var id="x32"> 2 3 14 </var>
    <var id="x33"> 2 3 12 16 </var>
    <var id="x34"> 2 4 6 12 14 </var>
    <var id="x35"> 6 12 14 15 </var>
    <var id="x36"> 3 6 14 15 </var>
    <var id="x37"> 2 4 6 14 </var>
    <var id="x38"> 12..15 17 </var>
    <var id="x39"> 12..14 </var>
    <var id="x40"> 10 12..15 17 </var>
    <var id="x41"> 5 10 14..16 </var>
    <var id="x42"> 10 16 17 </var>
    <var id="x43"> 5 12..15 17 </var>
    <var id="x44"> 10 14 16 </var>
    <var id="x45"> 12 13 17 </var>
    <var id="x46"> 6 15 </var>
    <var id="x47"> 1 3 5 12 15 </var>
    <var id="x48"> 3 8 12 15 </var>
    <var id="x49"> 1 3 5 12 </var>
    <var id="x50"> 1 5 7 8 12 </var>
    <var id="x51"> 3 6 </var>
    <var id="x52"> 5 12 15 </var>
    <var id="x53"> 1 7 8 </var>
    <var id="x54"> 1 5 11 15 </var>
    <var id="x55"> 5 9 11 </var>
    <var id="x56"> 1 5 11 16 </var>
    <var id="x57"> 1 10 15 </var>
    <var id="x58"> 1 5 8..10 </var>
    <var id="x59"> 1 5 9 10 15 16 </var>
    <var id="x60"> 5 9 11 15 </var>
    <var id="x61"> 8..10 </var>
    <var id="x62"> 11 12 14 17 </var>
    <var id="x63"> 8 11 12 14 </var>
    <var id="x64"> 1 5 8 12 </var>
    <var id="x65"> 1 5 14 </var>
    <var id="x66"> 3 11 17 </var>
    <var id="x67"> 5 11 12 14 17 </var>
    <var id="x68"> 1 3 12 14 </var>
    <var id="x69"> 1 3 11 12 17 </var>
    <var id="x70"> 1 3 14 15 </var>
    <var id="x71"> 0 3 7 9 14 </var>
    <var id="x72"> 1 13..15 </var>
    <var id="x73"> 1 7 9 14 15 </var>
    <var id="x74"> 0 1 7 14 15 </var>
    <var id="x75"> 9 13..15 </var>
    <var id="x76"> 0 1 3 14 15 </var>
    <var id="x77"> 0 1 3 13 </var>
    <var id="x78"> 9 13 15 </var>
    <var id="x79"> 2 11 12 17 </var>
    <var id="x80"> 2 11..13 </var>
    <var id="x81"> 9 12 </var>
    <var id="x82"> 9 13 15 </var>
    <var id="x83"> 12 15 </var>
    <var id="x84"> 2 11..13 17 </var>
    <var id="x85"> 2 12 14 16 </var>
    <var id="x86"> 2 5 12 14 </var>
    <var id="x87"> 4 8 12 14 </var>
    <var id="x88"> 2 5 12 16 </var>
    <var id="x89"> 4 5 8 9 12 </var>
    <var id="x90"> 5 9 14 </var>
    <var id="x91"> 4 8 14 16 </var>
    <var id="x92"> 12 14 16 </var>
    <var id="x93"> 2 6 14 15 </var>
    <var id="x94"> 0 6 9 15 </var>
    <var id="x95"> 1 2 14 15 </var>
    <var id="x96"> 1 6 14 15 </var>
    <var as="x73" id="x97"/>
    <var id="x98"> 0 2 6 </var>
    <var id="x99"> 9 14 15 </var>
    <var id="x100"> 6 9 14 15 </var>
    <var id="x101"> 6 15 </var>
    <var id="x102"> 0 6 9 13 15 </var>
    <var id="x103"> 0 3 5 9 </var>
    <var id="x104"> 3 5 </var>
    <var id="x105"> 6 13 </var>
    <var id="x106"> 5 9 10 15 </var>
    <var id="x107"> 0 3 6 10 </var>
    <var id="x108"> 0 10 </var>
    <var id="x109"> 3 12 14 17 </var>
    <var id="x110"> 0 2 3 14 </var>
    <var id="x111"> 10 12 14 17 </var>
    <var id="x112"> 10 14 16 </var>
    <var id="x113"> 0 14 17 </var>
    <var id="x114"> 0 10 14 16 </var>
    <var id="x115"> 0 3 10 12 14 16 </var>
    <var id="x116"> 2 10 14 </var>
    <var id="x117"> 2 6 12 14 15 17 </var>
    <var id="x118"> 1 6 10 12 14 15 17 </var>
    <var id="x119"> 1 10 12 </var>
    <var id="x120"> 1 6 14 15 17 </var>
    <var id="x121"> 12 14 15 17 </var>
    <var id="x122"> 6 14 15 </var>
    <var id="x123"> 1 10 14 </var>
    <var id="x124"> 1 10 12 14 15 </var>
    <var id="x125"> 2 11 12 14 17 </var>
    <var id="x126"> 2 11 12 14 </var>
    <var id="x127"> 1 7 10 14 </var>
    <var id="x128"> 2 10 11 17 </var>
    <var as="x62" id="x129"/>
    <var id="x130"> 1 7 10 14 </var>
    <var id="x131"> 2 10 14 </var>
    <var id="x132"> 1 2 11 12 17 </var>
    <var id="x133"> 8 13 14 17 </var>
    <var id="x134"> 5 9 11 14 </var>
    <var id="x135"> 5 11 17 </var>
    <var id="x136"> 10 13 14 17 </var>
    <var id="x137"> 10 11 17 </var>
    <var id="x138"> 5 14 17 </var>
    <var id="x139"> 10 14 </var>
    <var id="x140"> 8..10 14 </var>
  </variables>
  <constraints>
    <group>
      <allDifferent> %... </allDifferent>
      <args> x0 x1 x2 x3 x4 x5 x6 </args>
      <args> x7 x8 x9 x10 x11 x12 x13 x14 </args>
      <args> x15 x16 x17 x18 x19 x20 x21 x22 </args>
      <args> x23 x24 x25 x26 x27 x28 x29 </args>
      <args> x30 x31 x32 x33 x34 x35 x36 x37 </args>
      <args> x38 x39 x40 x41 x42 x43 x44 x45 </args>
      <args> x46 x47 x48 x49 x50 x51 x52 x53 </args>
      <args> x54 x55 x56 x57 x58 x59 x60 x61 </args>
      <args> x62 x63 x64 x65 x66 x67 x68 x69 </args>
      <args> x70 x71 x72 x73 x74 x75 x76 x77 </args>
      <args> x78 x79 x80 x81 x82 x83 x84 </args>
      <args> x85 x86 x87 x88 x89 x90 x91 x92 </args>
      <args> x93 x94 x95 x96 x97 x98 x99 x100 </args>
      <args> x101 x102 x103 x104 x105 x106 x107 x108 </args>
      <args> x109 x110 x111 x112 x113 x114 x115 x116 </args>
      <args> x117 x118 x119 x120 x121 x122 x123 x124 </args>
      <args> x125 x126 x127 x128 x129 x130 x131 x132 </args>
      <args> x133 x134 x135 x136 x137 x138 x139 x140 </args>
      <args> x15 x30 x62 x85 x93 x101 x117 x125 </args>
      <args> x0 x23 x31 x46 x78 x94 x102 </args>
      <args> x1 x7 x16 x47 x54 x70 x86 x95 </args>
      <args> x2 x8 x24 x38 x48 x87 x109 x133 </args>
      <args> x17 x25 x32 x55 x71 x103 x110 x134 </args>
      <args> x9 x33 x49 x56 x79 x88 x104 x135 </args>
      <args> x3 x10 x34 x39 x63 x80 x105 x126 </args>
      <args> x35 x40 x57 x72 x96 x111 x118 x136 </args>
      <args> x18 x26 x50 x58 x64 x81 x89 x119 </args>
      <args> x41 x59 x65 x73 x97 x106 x112 x127 </args>
      <args> x27 x42 x51 x66 x98 x107 x128 x137 </args>
      <args> x4 x11 x19 x28 x74 x113 x120 x138 </args>
      <args> x43 x52 x60 x67 x75 x99 x121 x129 </args>
      <args> x5 x12 x36 x82 x90 x100 x122 </args>
      <args> x13 x44 x53 x91 x108 x114 x123 x130 </args>
      <args> x20 x68 x76 x83 x92 x115 x124 x139 </args>
      <args> x14 x21 x37 x61 x116 x131 x140 </args>
      <args> x6 x22 x29 x45 x69 x77 x84 x132 </args>
    </group>
  </constraints>
</instance>

